12 32 9 10
5 11 10 17 16 11 8 7 5 5 8 20 15 20 10 19 7 16 10 1 2 15 7 13 9 12 16 3 8 18 13 6 
2.91 4.98 1.66 12.07 12.9 4.43 3.18 4.59 5.52 9.57 10.76 6.14 6.21 14.37 15.42 3.9 2.69 12.79 6.55 13.97 0.69 5.19 1.98 4.78 6.27 12.78 12.82 3.41 6.46 7.9 2.22 5.99 
11.15 4.54 8.99 13.97 3.54 2.97 6.43 13.12 2.5 10.09 15.63 3.03 9.05 1.56 1.02 1.38 9.36 12.66 11.03 2.22 7.13 9.64 12.11 11.02 3.79 4.3 6.48 0.75 3.29 7.78 10.71 13.42 
15.37 10.59 9.41 9.44 5.88 5.01 12.29 14.22 6.71 13.54 4.73 1.4 11.77 3.31 11.79 5.63 3.78 11.05 1.12 13.3 8.95 14.34 3.08 2.41 1.49 7.88 0.18 7.4 5.28 1.76 9.2 9.42 
14.78 7.51 11.21 15.75 6.23 5.93 14.4 6.7 6.49 7.93 11.96 3.16 13.13 10.13 8.27 14.16 15.96 7.36 7.23 15.01 7.15 8.48 9.52 5.78 10.92 3.88 12.12 14.98 8.23 1.88 0.73 6.96 
15.81 6.7 0.26 0.21 8.12 8.6 6.22 2.59 10.93 0.89 4.15 3.81 11.07 6.08 8.41 11.33 3.72 8.58 1.31 7.61 15.73 5.37 12.29 0.5 11.14 13.57 14.07 9.63 15.27 6.46 5.91 7.81 
0.65 10.75 11.46 2.72 7.16 6.5 11.93 3.46 1.04 4.14 3.33 4.62 4.74 13.04 5.87 3 8.73 0.18 8.92 8.06 2.96 5.09 5.09 11.2 5.64 9.77 7.16 2.42 12.57 12.85 8.53 9.35 
7.55 7.08 3.93 6.97 1.61 1.91 13.55 9.28 11.56 11.27 3.7 7.65 9.92 11.89 3.66 12.09 3.06 2.24 0.27 8.49 4.27 11.21 10.88 9.26 10.05 4.63 1.77 5.07 9.69 9.7 8.36 10.91 
6.77 10.23 9.71 11 6.56 12.28 9.46 6.62 2.48 6.22 14.39 8.21 7.42 7.45 11.99 10.84 11.53 15.89 4.82 1.58 3.09 7.14 13.54 12.01 13.39 14.46 14.91 5.46 8.15 11.47 10.45 6.62 
4.76 4.03 15.57 4.7 11.81 9.72 13.62 2.84 6.78 14.7 6.39 2.7 2.7 12.69 3.6 1.75 10.85 7.12 7.87 3.76 0.73 0.05 1.68 14.58 6.38 13.21 8.52 1.78 9.33 5.83 12.53 13.34 
8 8 8 8 8 8 8 8 8 8 8 8 8 8 8 8 8 8 8 8 8 8 8 8 8 8 8 8 8 8 8 8 
1.47 7.12 14.65 10.15 5.39 14.14 13.44 8.34 3.77 0.87 13.06 0.48 1.23 6.28 5.78 6.88 7.7 3.49 13.07 13.1 0.9 4.41 0.94 12.79 14.29 8.96 0.83 5.23 10.17 13.39 7.82 6.53 
15.42 12.87 7.12 8.15 13.11 5.01 10.89 6.98 12.34 7.42 10.48 3.91 6.7 12.13 1.87 5.47 14.76 5 5.11 14.94 8.48 12.99 3.05 6.6 1.61 8.39 12.05 8.26 2.05 12.64 0.53 8.63 
1 1 1 1 1 1 1 1 1 1 1 1 1 1 1 1 1 1 1 1 1 1 1 1 1 1 1 1 1 1 1 1 
1 1 1 1 1 1 1 1 1 1 1 1 1 1 1 1 1 1 1 1 1 1 1 1 1 1 1 1 1 1 1 1 
1 1 1 1 1 1 1 1 1 1 1 1 1 1 1 1 1 1 1 1 1 1 1 1 1 1 1 1 1 1 1 1 
1 1 1 1 1 1 1 1 1 1 1 1 1 1 1 1 1 1 1 1 1 1 1 1 1 1 1 1 1 1 1 1 
1 1 1 1 1 1 1 1 1 1 1 1 1 1 1 1 1 1 1 1 1 1 1 1 1 1 1 1 1 1 1 1 
1 1 1 1 1 1 1 1 1 1 1 1 1 1 1 1 1 1 1 1 1 1 1 1 1 1 1 1 1 1 1 1 
1 1 1 1 1 1 1 1 1 1 1 1 1 1 1 1 1 1 1 1 1 1 1 1 1 1 1 1 1 1 1 1 
1 1 1 1 1 1 1 1 1 1 1 1 1 1 1 1 1 1 1 1 1 1 1 1 1 1 1 1 1 1 1 1 
1 1 1 1 1 1 1 1 1 1 1 1 1 1 1 1 1 1 1 1 1 1 1 1 1 1 1 1 1 1 1 1 
1 1 1 1 1 1 1 1 1 1 1 1 1 1 1 1 1 1 1 1 1 1 1 1 1 1 1 1 1 1 1 1 
1 1 1 1 1 1 1 1 1 1 1 1 1 1 1 1 1 1 1 1 1 1 1 1 1 1 1 1 1 1 1 1 
1 1 1 1 1 1 1 1 1 1 1 1 1 1 1 1 1 1 1 1 1 1 1 1 1 1 1 1 1 1 1 1 
0.01 0.01 0.01 0.01 0.01 0.01 0.01 0.01 0.01 0.01 0.01 0.01 0.01 0.01 0.01 0.01 0.01 0.01 0.01 0.01 0.01 0.01 0.01 0.01 0.01 0.01 0.01 0.01 0.01 0.01 0.01 0.01 
0.02 0.02 0.02 0.02 0.02 0.02 0.02 0.02 0.02 0.02 0.02 0.02 0.02 0.02 0.02 0.02 0.02 0.02 0.02 0.02 0.02 0.02 0.02 0.02 0.02 0.02 0.02 0.02 0.02 0.02 0.02 0.02 
0.03 0.03 0.03 0.03 0.03 0.03 0.03 0.03 0.03 0.03 0.03 0.03 0.03 0.03 0.03 0.03 0.03 0.03 0.03 0.03 0.03 0.03 0.03 0.03 0.03 0.03 0.03 0.03 0.03 0.03 0.03 0.03 
0.04 0.04 0.04 0.04 0.04 0.04 0.04 0.04 0.04 0.04 0.04 0.04 0.04 0.04 0.04 0.04 0.04 0.04 0.04 0.04 0.04 0.04 0.04 0.04 0.04 0.04 0.04 0.04 0.04 0.04 0.04 0.04 
0.05 0.05 0.05 0.05 0.05 0.05 0.05 0.05 0.05 0.05 0.05 0.05 0.05 0.05 0.05 0.05 0.05 0.05 0.05 0.05 0.05 0.05 0.05 0.05 0.05 0.05 0.05 0.05 0.05 0.05 0.05 0.05 
0.06 0.06 0.06 0.06 0.06 0.06 0.06 0.06 0.06 0.06 0.06 0.06 0.06 0.06 0.06 0.06 0.06 0.06 0.06 0.06 0.06 0.06 0.06 0.06 0.06 0.06 0.06 0.06 0.06 0.06 0.06 0.06 
0.07 0.07 0.07 0.07 0.07 0.07 0.07 0.07 0.07 0.07 0.07 0.07 0.07 0.07 0.07 0.07 0.07 0.07 0.07 0.07 0.07 0.07 0.07 0.07 0.07 0.07 0.07 0.07 0.07 0.07 0.07 0.07 
0.08 0.08 0.08 0.08 0.08 0.08 0.08 0.08 0.08 0.08 0.08 0.08 0.08 0.08 0.08 0.08 0.08 0.08 0.08 0.08 0.08 0.08 0.08 0.08 0.08 0.08 0.08 0.08 0.08 0.08 0.08 0.08 
0.09 0.09 0.09 0.09 0.09 0.09 0.09 0.09 0.09 0.09 0.09 0.09 0.09 0.09 0.09 0.09 0.09 0.09 0.09 0.09 0.09 0.09 0.09 0.09 0.09 0.09 0.09 0.09 0.09 0.09 0.09 0.09 
0.1 0.1 0.1 0.1 0.1 0.1 0.1 0.1 0.1 0.1 0.1 0.1 0.1 0.1 0.1 0.1 0.1 0.1 0.1 0.1 0.1 0.1 0.1 0.1 0.1 0.1 0.1 0.1 0.1 0.1 0.1 0.1 
0.5 0.5 0.5 0.5 0.5 0.5 0.5 0.5 0.5 0.5 0.5 0.5 0.5 0.5 0.5 0.5 0.5 0.5 0.5 0.5 0.5 0.5 0.5 0.5 0.5 0.5 0.5 0.5 0.5 0.5 0.5 0.5 
1 1 1 1 1 1 1 1 1 1 1 1 1 1 1 1 1 1 1 1 1 1 1 1 1 1 1 1 1 1 1 1 
